 vasp.5.4.4.18Apr17-6-g9f103f2a35 (build Apr 06 2023 23:00:39) complex

 executed on             LinuxIFC date 2024.02.10  16:03:24

 INCAR:
 POTCAR:    PAW K_pv 22Nov2003
 POTCAR:    PAW Nb_pv 09Jan2002
 POTCAR:    PAW O 22Mar2012

   TITEL  = PAW K_pv 22Nov2003
   POMASS =   39.098; ZVAL   =    7.000    mass and valenz
   ENMAX  =  116.596; ENMIN  =   87.447 eV

   TITEL  = PAW Nb_pv 09Jan2002
   POMASS =   92.910; ZVAL   =   11.000    mass and valenz
   ENMAX  =  207.263; ENMIN  =  155.447 eV

   TITEL  = PAW O 22Mar2012
   POMASS =   16.000; ZVAL   =    6.000    mass and valenz
   ENMAX  =  400.000; ENMIN  =  300.000 eV

 Optimization of the real space projectors (new method)

 maximal supplied QI-value         = 12.47
 optimisation between [QCUT,QGAM] = [ 11.97, 23.95] = [ 40.14,160.58] Ry
 Optimized for a Real-space Cutoff    1.68 Angstroem

   l    n(q)    QCUT    max X(q) W(low)/X(q) W(high)/X(q)  e(spline)
   1     12    11.973    43.885    0.20E-03    0.61E-04    0.29E-05
   1     12    11.973    44.107    0.21E-03    0.63E-04    0.30E-05
   0     12    11.973    65.975    0.77E-04    0.82E-04    0.14E-05
   0     12    11.973    25.023    0.50E-04    0.56E-04    0.93E-06
   2     11    11.973     5.381    0.19E-04    0.39E-04    0.15E-06
 Optimization of the real space projectors (new method)

[...]

   l    n(q)    QCUT    max X(q) W(low)/X(q) W(high)/X(q)  e(spline)
   1     11    11.973     4.580    0.44E-05    0.15E-04    0.13E-06
   1     11    11.973     6.005    0.21E-04    0.48E-04    0.27E-06
   2     11    11.973   189.543    0.30E-03    0.19E-03    0.11E-05
   2     11    11.973   165.669    0.30E-03    0.19E-03    0.11E-05
   0     12    11.973    36.742    0.64E-04    0.61E-04    0.48E-06
   0     12    11.973    16.256    0.50E-04    0.47E-04    0.37E-06
 Optimization of the real space projectors (new method)

 maximal supplied QI-value         = 24.76
 optimisation between [QCUT,QGAM] = [ 11.88, 24.01] = [ 39.54,161.47] Ry
 Optimized for a Real-space Cutoff    1.05 Angstroem

   l    n(q)    QCUT    max X(q) W(low)/X(q) W(high)/X(q)  e(spline)
   0      7    11.883    20.659    0.33E-03    0.21E-03    0.21E-06
   0      7    11.883    15.633    0.36E-03    0.22E-03    0.22E-06
   1      7    11.883     5.864    0.41E-03    0.84E-04    0.23E-06
   1      7    11.883     5.285    0.36E-03    0.46E-04    0.20E-06
  PAW K_pv 22Nov2003                    :
  PAW Nb_pv 09Jan2002                   :
  PAW O 22Mar2012                       :

 POSCAR: K2 Nb2 O6
  positions in direct lattice
  velocities in cartesian coordinates
 exchange correlation table for  LEXCH =        2
   RHO(1)=    0.500       N(1)  =     2000
   RHO(2)=  100.500       N(2)  =     4000

 ion  position               nearest neighbor table
   1  0.500  0.015  0.500-   7 2.75   6 2.79   5 2.79   5 2.79   6 2.79  10 2.84  10 2.84   8 2.86
                             9 2.86   8 2.86   9 2.86   7 2.94   3 3.42   3 3.42   4 3.47   4 3.47
   2  0.000  0.515  0.500-  10 2.75   9 2.79   8 2.79   8 2.79   9 2.79   7 2.84   7 2.84   5 2.86
                             5 2.86   6 2.86   6 2.86  10 2.94   4 3.42   4 3.42   3 3.47   3 3.47
   3  0.500  0.505  0.000-   9 1.92   8 1.92   7 2.00   7 2.00   6 2.10   5 2.10   1 3.42   1 3.42
                             2 3.47   2 3.47   2 3.47   2 3.47   1 3.52   1 3.52
   4  0.000  0.005  0.000-   6 1.92   5 1.92  10 2.00  10 2.00   8 2.10   9 2.10   2 3.42   2 3.42
                             1 3.47   1 3.47   1 3.47   1 3.47   2 3.52   2 3.52
   5  0.750  0.778  0.000-   4 1.92   3 2.10   1 2.79   1 2.79   2 2.86   2 2.86
   6  0.250  0.778  0.000-   4 1.92   3 2.10   1 2.79   1 2.79   2 2.86   2 2.86
   7  0.500  0.532  0.500-   3 2.00   3 2.00   1 2.75   2 2.84   2 2.84   1 2.94
   8  0.250  0.278  0.000-   3 1.92   4 2.10   2 2.79   2 2.79   1 2.86   1 2.86
   9  0.750  0.278  0.000-   3 1.92   4 2.10   2 2.79   2 2.79   1 2.86   1 2.86
  10  0.000  0.032  0.500-   4 2.00   4 2.00   2 2.75   1 2.84   1 2.84   2 2.94

  LATTYP: Found a simple orthorhombic cell.
 ALAT       =     3.9800645242
 B/A-ratio  =     1.4255033657
 C/A-ratio  =     1.4277898118

  Lattice vectors:

 A1 = (   0.0000000000,   0.0000000000,   3.9800645242)
 A2 = (  -5.6735953748,   0.0000000000,  -0.0000000000)
 A3 = (  -0.0000000000,  -5.6826955779,  -0.0000000000)

Analysis of symmetry for initial positions (statically):
 Subroutine PRICEL returns following result:

  LATTYP: Found a base centered orthorhombic cell.
 ALAT       =     5.6735953748
 B/A-ratio  =     1.0016039570
 C/A-ratio  =     0.7015065864

[...]

   2 primitive cells build up your supercell.

 Routine SETGRP: Setting up the symmetry group for a
 simple orthorhombic supercell.

 Subroutine GETGRP returns: Found  4 space group operations
 (whereof  4 operations were pure point group operations)
 out of a pool of  8 trial point group operations.

The static configuration has the point symmetry C_2v.

Analysis of symmetry for dynamics (positions and initial velocities):
 Subroutine PRICEL returns following result:

[...]

The dynamic configuration has the point symmetry C_2v.

Analysis of structural, dynamic, and magnetic symmetry:
 Subroutine PRICEL returns following result:

[...]

The magnetic configuration has the point symmetry C_2v.

 Subroutine INISYM returns: Found  4 space group operations
 (whereof  4 operations are pure point group operations),
 and found     2 'primitive' translations

 KPOINTS: K-Spacing Value to Generate K-Mesh: 0.05

Automatic generation of k-mesh.
Space group operators:
 irot       det(A)        alpha          n_x          n_y          n_z        tau_x        tau_y        tau_z
    1     1.000000     0.000000     1.000000     0.000000     0.000000     0.000000     0.000000     0.000000
    2     1.000000   180.000000     0.000000     1.000000     0.000000     0.000000     0.000000     0.000000
    3    -1.000000   180.000000     1.000000    -0.000000     0.000000     0.000000     0.000000     0.000000
    4    -1.000000   179.999999    -0.000000    -0.000000     1.000000     0.000000     0.000000     0.000000

 Subroutine IBZKPT returns following result:

 Found     27 irreducible k-points:

 Following reciprocal coordinates:
            Coordinates               Weight
  0.000000  0.000000  0.000000      1.000000
  0.200000  0.000000  0.000000      2.000000
  0.400000  0.000000  0.000000      2.000000
  0.000000  0.200000  0.000000      2.000000
  0.200000  0.200000  0.000000      4.000000
  0.400000  0.200000  0.000000      4.000000
  0.000000  0.400000  0.000000      2.000000
  0.200000  0.400000  0.000000      4.000000
  0.400000  0.400000  0.000000      4.000000
  0.000000  0.000000  0.200000      2.000000
  0.200000  0.000000  0.200000      4.000000
  0.400000  0.000000  0.200000      4.000000
  0.000000  0.200000  0.200000      4.000000
  0.200000  0.200000  0.200000      8.000000
  0.400000  0.200000  0.200000      8.000000
  0.000000  0.400000  0.200000      4.000000
  0.200000  0.400000  0.200000      8.000000
  0.400000  0.400000  0.200000      8.000000
  0.000000  0.000000  0.400000      2.000000
  0.200000  0.000000  0.400000      4.000000
  0.400000  0.000000  0.400000      4.000000
  0.000000  0.200000  0.400000      4.000000
  0.200000  0.200000  0.400000      8.000000
  0.400000  0.200000  0.400000      8.000000
  0.000000  0.400000  0.400000      4.000000
  0.200000  0.400000  0.400000      8.000000
  0.400000  0.400000  0.400000      8.000000

 Following cartesian coordinates:
            Coordinates               Weight
  0.000000  0.000000  0.000000      1.000000
  0.035251 -0.000000  0.000000      2.000000
  0.070502 -0.000000  0.000000      2.000000
  0.000000  0.035195  0.000000      2.000000
  0.035251  0.035195  0.000000      4.000000
  0.070502  0.035195  0.000000      4.000000
  0.000000  0.070389  0.000000      2.000000
  0.035251  0.070389  0.000000      4.000000
  0.070502  0.070389  0.000000      4.000000
 -0.000000 -0.000000  0.050250      2.000000
  0.035251 -0.000000  0.050250      4.000000
  0.070502 -0.000000  0.050250      4.000000
 -0.000000  0.035195  0.050250      4.000000
  0.035251  0.035195  0.050250      8.000000
  0.070502  0.035195  0.050250      8.000000
 -0.000000  0.070389  0.050250      4.000000
  0.035251  0.070389  0.050250      8.000000
  0.070502  0.070389  0.050250      8.000000
 -0.000000 -0.000000  0.100501      2.000000
  0.035251 -0.000000  0.100501      4.000000
  0.070502 -0.000000  0.100501      4.000000
 -0.000000  0.035195  0.100501      4.000000
  0.035251  0.035195  0.100501      8.000000
  0.070502  0.035195  0.100501      8.000000
 -0.000000  0.070389  0.100501      4.000000
  0.035251  0.070389  0.100501      8.000000
  0.070502  0.070389  0.100501      8.000000

 Subroutine IBZKPT_HF returns following result:

 Found    125 k-points in 1st BZ
 the following    125 k-points will be used (e.g. in the exchange kernel)
 Following reciprocal coordinates:   # in IRBZ
  0.000000  0.000000  0.000000    0.00800000   1 t-inv F
  0.200000  0.000000  0.000000    0.00800000   2 t-inv F
  0.400000  0.000000  0.000000    0.00800000   3 t-inv F
  0.000000  0.200000  0.000000    0.00800000   4 t-inv F
  0.200000  0.200000  0.000000    0.00800000   5 t-inv F
  0.400000  0.200000  0.000000    0.00800000   6 t-inv F
  0.000000  0.400000  0.000000    0.00800000   7 t-inv F
  0.200000  0.400000  0.000000    0.00800000   8 t-inv F
  0.400000  0.400000  0.000000    0.00800000   9 t-inv F
  0.000000  0.000000  0.200000    0.00800000  10 t-inv F
  0.200000  0.000000  0.200000    0.00800000  11 t-inv F
  0.400000  0.000000  0.200000    0.00800000  12 t-inv F
  0.000000  0.200000  0.200000    0.00800000  13 t-inv F
  0.200000  0.200000  0.200000    0.00800000  14 t-inv F
  0.400000  0.200000  0.200000    0.00800000  15 t-inv F
  0.000000  0.400000  0.200000    0.00800000  16 t-inv F
  0.200000  0.400000  0.200000    0.00800000  17 t-inv F
  0.400000  0.400000  0.200000    0.00800000  18 t-inv F
  0.000000  0.000000  0.400000    0.00800000  19 t-inv F
  0.200000  0.000000  0.400000    0.00800000  20 t-inv F
  0.400000  0.000000  0.400000    0.00800000  21 t-inv F
  0.000000  0.200000  0.400000    0.00800000  22 t-inv F
  0.200000  0.200000  0.400000    0.00800000  23 t-inv F
  0.400000  0.200000  0.400000    0.00800000  24 t-inv F
  0.000000  0.400000  0.400000    0.00800000  25 t-inv F
  0.200000  0.400000  0.400000    0.00800000  26 t-inv F
  0.400000  0.400000  0.400000    0.00800000  27 t-inv F
 -0.200000  0.000000  0.000000    0.00800000   2 t-inv F
 -0.400000  0.000000  0.000000    0.00800000   3 t-inv F
 -0.200000  0.200000  0.000000    0.00800000   5 t-inv F
 -0.400000  0.200000  0.000000    0.00800000   6 t-inv F
 -0.200000  0.400000  0.000000    0.00800000   8 t-inv F
 -0.400000  0.400000  0.000000    0.00800000   9 t-inv F
  0.000000  0.000000 -0.200000    0.00800000  10 t-inv F
 -0.200000  0.000000 -0.200000    0.00800000  11 t-inv F
 -0.200000  0.000000  0.200000    0.00800000  11 t-inv F
  0.200000  0.000000 -0.200000    0.00800000  11 t-inv F
 -0.400000  0.000000 -0.200000    0.00800000  12 t-inv F
[...]
  z    -0.00000    -0.00000    -0.00000     0.00000     0.24869    -0.00000

 SECOND DERIVATIVES (NOT SYMMETRIZED)
               1X          1Y          1Z          2X          2Y          2Z          3X          3Y          3Z          4X          4Y          4Z          5X          5Y          5Z          6X          6Y          6Z          7X          7Y          7Z          8X          8Y          8Z          9X          9Y          9Z         10X         10Y         10Z
  1X    -3.659187   -0.000000   -0.000000    0.355099    0.000000    0.000000   -1.787406    0.000000   -0.000000    3.984719   -0.000000    0.000000    0.055783   -0.168459   -0.000000    0.055783    0.168459    0.000000    0.270917    0.000000    0.000000    0.368318    0.207120    0.000000    0.368318   -0.207120    0.000000   -0.012343    0.000000   -0.000000
  1Y    -0.000000   -3.838818   -0.000000    0.000000    0.372082    0.000000    0.000000    3.923615    0.000000   -0.000000   -1.749278   -0.000000    0.002642    0.316699    0.000000   -0.002642    0.316699    0.000000    0.000000    0.117075    0.000000    0.031899    0.113491    0.000000   -0.031899    0.113491    0.000000    0.000000    0.314943    0.000000
  1Z    -0.000000   -0.000000   -3.198860    0.000000    0.000000   -0.119063   -0.000000    0.000000    1.034199    0.000000   -0.000000    1.006864    0.000000    0.000000    0.321707    0.000000    0.000000    0.321707    0.000000    0.000000    0.234599    0.000000    0.000000    0.061475    0.000000   -0.000000    0.061475   -0.000000    0.000000    0.275897
  2X     0.355099    0.000000    0.000000   -3.659187   -0.000000   -0.000000    3.984719   -0.000000    0.000000   -1.787406    0.000000   -0.000000    0.368318    0.207120    0.000000    0.368318   -0.207120    0.000000   -0.012343    0.000000   -0.000000    0.055783   -0.168459   -0.000000    0.055783    0.168459    0.000000    0.270917    0.000000    0.000000
  2Y     0.000000    0.372082    0.000000   -0.000000   -3.838818   -0.000000   -0.000000   -1.749278   -0.000000    0.000000    3.923615    0.000000    0.031899    0.113491    0.000000   -0.031899    0.113491    0.000000    0.000000    0.314943    0.000000    0.002642    0.316699    0.000000   -0.002642    0.316699    0.000000    0.000000    0.117075    0.000000
  2Z     0.000000    0.000000   -0.119063   -0.000000   -0.000000   -3.198860    0.000000   -0.000000    1.006864   -0.000000    0.000000    1.034199    0.000000    0.000000    0.061475    0.000000   -0.000000    0.061475   -0.000000    0.000000    0.275897    0.000000    0.000000    0.321707    0.000000    0.000000    0.321707    0.000000    0.000000    0.234599
  3X    -1.591889    0.000000   -0.000000    4.179702   -0.000000    0.000000  -26.633073   -0.000000   -0.000000   19.120252    0.000000    0.000000   -2.927614   -2.233493   -0.000000   -2.927614    2.233493   -0.000000    2.782651    0.000000    0.000000    5.267724    4.119237    0.000000    5.267724   -4.119237    0.000000   -2.537864   -0.000000   -0.000000
  3Y     0.000000    4.070000    0.000000   -0.000000   -1.602256   -0.000000   -0.000000  -26.566038   -0.000000    0.000000   17.486203    0.000000   -1.520314   -1.131617   -0.000000    1.520314   -1.131617    0.000000    0.000000    3.168428    0.000000    3.996577    4.116808    0.000000   -3.996577    4.116808    0.000000   -0.000000   -2.526719   -0.000000
  3Z    -0.000000    0.000000    1.167824    0.000000   -0.000000    1.140359   -0.000000   -0.000000   -1.785393    0.000000    0.000000    0.017773   -0.000000   -0.000000   -0.305945   -0.000000    0.000000   -0.305945    0.000000    0.000000    0.704639    0.000000    0.000000   -0.147710    0.000000   -0.000000   -0.147710   -0.000000   -0.000000   -0.337893
  4X     4.179702   -0.000000    0.000000   -1.591889    0.000000   -0.000000   19.120252    0.000000    0.000000  -26.633073   -0.000000   -0.000000    5.267724    4.119237    0.000000    5.267724   -4.119237    0.000000   -2.537864   -0.000000   -0.000000   -2.927614   -2.233493   -0.000000   -2.927614    2.233493   -0.000000    2.782651    0.000000    0.000000
  4Y    -0.000000   -1.602256   -0.000000    0.000000    4.070000    0.000000    0.000000   17.486203    0.000000   -0.000000  -26.566038   -0.000000    3.996577    4.116808    0.000000   -3.996577    4.116808    0.000000   -0.000000   -2.526719   -0.000000   -1.520314   -1.131617   -0.000000    1.520314   -1.131617    0.000000    0.000000    3.168428    0.000000
  4Z     0.000000   -0.000000    1.140359   -0.000000    0.000000    1.167824    0.000000    0.000000    0.017773   -0.000000   -0.000000   -1.785393    0.000000    0.000000   -0.147710    0.000000   -0.000000   -0.147710   -0.000000   -0.000000   -0.337893   -0.000000   -0.000000   -0.305945   -0.000000    0.000000   -0.305945    0.000000    0.000000    0.704639
  5X    -0.016786   -0.005597   -0.000000    0.295639    0.023237    0.000000   -3.195136   -1.531275   -0.000000    4.999957    3.989096    0.000000  -13.518862   -9.116016   -0.000000    6.471545   -1.954017    0.000000    1.160115    1.297019    0.000000    5.027271    4.344656    0.000000   -1.686151    1.654848   -0.000000    0.462407    1.298048    0.000000
  5Y    -0.176864    0.242708    0.000000    0.198511    0.040073    0.000000   -2.239884   -1.350622   -0.000000    4.110476    3.892709    0.000000   -9.117278  -12.702942   -0.000000    1.936549   -2.291824   -0.000000    1.554205    0.768935    0.000000    4.343249    4.730145    0.000000   -1.671473    5.764552    0.000000    1.062508    0.906265    0.000000
  5Z    -0.000000    0.000000    0.226808    0.000000    0.000000   -0.033389   -0.000000   -0.000000   -0.534803    0.000000    0.000000   -0.376191   -0.000000   -0.000000   -3.538349    0.000000   -0.000000   -0.500635    0.000000    0.000000    2.120003    0.000000    0.000000    0.598620   -0.000000    0.000000   -0.475406    0.000000    0.000000    2.513343
  6X    -0.016786    0.005597   -0.000000    0.295639   -0.023237    0.000000   -3.195136    1.531275   -0.000000    4.999957   -3.989096    0.000000    6.471545    1.954017    0.000000  -13.518862    9.116016   -0.000000    1.160115   -1.297019   -0.000000   -1.686151   -1.654848   -0.000000    5.027271   -4.344656    0.000000    0.462407   -1.298048   -0.000000
  6Y     0.176864    0.242708    0.000000   -0.198511    0.040073   -0.000000    2.239884   -1.350622    0.000000   -4.110476    3.892709   -0.000000   -1.936549   -2.291824   -0.000000    9.117278  -12.702942   -0.000000   -1.554205    0.768935   -0.000000    1.671473    5.764552    0.000000   -4.343249    4.730145    0.000000   -1.062508    0.906265   -0.000000
  6Z     0.000000    0.000000    0.226808    0.000000    0.000000   -0.033389   -0.000000    0.000000   -0.534803    0.000000   -0.000000   -0.376191    0.000000   -0.000000   -0.500635   -0.000000   -0.000000   -3.538349   -0.000000   -0.000000    2.120003   -0.000000    0.000000   -0.475406    0.000000    0.000000    0.598620   -0.000000   -0.000000    2.513343
  7X     0.231075    0.000000    0.000000   -0.052467    0.000000   -0.000000    2.544566    0.000000    0.000000   -2.771491   -0.000000   -0.000000    1.193374    1.563309    0.000000    1.193374   -1.563309   -0.000000   -3.579604   -0.000000   -0.000000    0.494627    1.069975    0.000000    0.494627   -1.069975   -0.000000    0.251918    0.000000    0.000000
  7Y     0.000000    0.048002    0.000000    0.000000    0.246363    0.000000    0.000000    2.948372    0.000000   -0.000000   -2.738367   -0.000000    1.303863    0.773057    0.000000   -1.303863    0.773057   -0.000000   -0.000000   -4.164694   -0.000000    1.307955    0.912075    0.000000   -1.307955    0.912075   -0.000000    0.000000    0.290059    0.000000
  7Z     0.000000    0.000000    0.125059   -0.000000    0.000000    0.166373    0.000000    0.000000    0.462761   -0.000000   -0.000000   -0.581683    0.000000    0.000000    2.105044   -0.000000   -0.000000    2.105044   -0.000000   -0.000000   -9.699637    0.000000    0.000000    2.499113   -0.000000   -0.000000    2.499113    0.000000    0.000000    0.318812
  8X     0.295639    0.023237    0.000000   -0.016786   -0.005597   -0.000000    4.999957    3.989096    0.000000   -3.195136   -1.531275   -0.000000    5.027271    4.344656    0.000000   -1.686151    1.654848   -0.000000    0.462407    1.298048    0.000000  -13.518862   -9.116016   -0.000000    6.471545   -1.954017    0.000000    1.160115    1.297019    0.000000
  8Y     0.198511    0.040073    0.000000   -0.176864    0.242708    0.000000    4.110476    3.892709    0.000000   -2.239884   -1.350622   -0.000000    4.343249    4.730145    0.000000   -1.671473    5.764552    0.000000    1.062508    0.906265    0.000000   -9.117278  -12.702942   -0.000000    1.936549   -2.291824   -0.000000    1.554205    0.768935    0.000000
  8Z     0.000000    0.000000   -0.033389   -0.000000    0.000000    0.226808    0.000000    0.000000   -0.376191   -0.000000   -0.000000   -0.534803    0.000000    0.000000    0.598620   -0.000000    0.000000   -0.475406    0.000000    0.000000    2.513343   -0.000000   -0.000000   -3.538349    0.000000   -0.000000   -0.500635    0.000000    0.000000    2.120003
  9X     0.295639   -0.023237    0.000000   -0.016786    0.005597   -0.000000    4.999957   -3.989096    0.000000   -3.195136    1.531275   -0.000000   -1.686151   -1.654848   -0.000000    5.027271   -4.344656    0.000000    0.462407   -1.298048   -0.000000    6.471545    1.954017    0.000000  -13.518862    9.116016   -0.000000    1.160115   -1.297019   -0.000000
  9Y    -0.198511    0.040073   -0.000000    0.176864    0.242708    0.000000   -4.110476    3.892709   -0.000000    2.239884   -1.350622    0.000000    1.671473    5.764552    0.000000   -4.343249    4.730145    0.000000   -1.062508    0.906265   -0.000000   -1.936549   -2.291824   -0.000000    9.117278  -12.702942   -0.000000   -1.554205    0.768935   -0.000000
  9Z     0.000000    0.000000   -0.033389    0.000000    0.000000    0.226808    0.000000   -0.000000   -0.376191   -0.000000    0.000000   -0.534803   -0.000000    0.000000   -0.475406    0.000000    0.000000    0.598620   -0.000000   -0.000000    2.513343    0.000000   -0.000000   -0.500635   -0.000000   -0.000000   -3.538349   -0.000000   -0.000000    2.120003
 10X    -0.052467    0.000000   -0.000000    0.231075    0.000000    0.000000   -2.771491   -0.000000   -0.000000    2.544566    0.000000    0.000000    0.494627    1.069975    0.000000    0.494627   -1.069975   -0.000000    0.251918    0.000000    0.000000    1.193374    1.563309    0.000000    1.193374   -1.563309   -0.000000   -3.579604   -0.000000   -0.000000
 10Y     0.000000    0.246363    0.000000    0.000000    0.048002    0.000000   -0.000000   -2.738367   -0.000000    0.000000    2.948372    0.000000    1.307955    0.912075    0.000000   -1.307955    0.912075   -0.000000    0.000000    0.290059    0.000000    1.303863    0.773057    0.000000   -1.303863    0.773057   -0.000000   -0.000000   -4.164694   -0.000000
 10Z    -0.000000    0.000000    0.166373    0.000000    0.000000    0.125059   -0.000000   -0.000000   -0.581683    0.000000    0.000000    0.462761    0.000000    0.000000    2.499113   -0.000000   -0.000000    2.499113    0.000000    0.000000    0.318812    0.000000    0.000000    2.105044   -0.000000   -0.000000    2.105044   -0.000000   -0.000000   -9.699637

 Eigenvectors and eigenvalues of the dynamical matrix

   1 f  =   25.845696 THz   162.393299 2PiTHz  862.119601 cm-1   106.889246 meV
             X         Y         Z           dx          dy          dz
      2.836798  0.085376  1.990032     0.000000    0.004945    0.000000
      0.000000  2.926724  1.990032     0.000000   -0.004945   -0.000000
      2.836798  2.869518  0.000000    -0.000000   -0.087133   -0.000000
      0.000000  0.028170  0.000000     0.000000    0.087133   -0.000000
      4.255709  4.422481  0.000000    -0.357066   -0.344517   -0.000000
      1.417887  4.422481  0.000000     0.357066   -0.344517   -0.000000
      2.836798  3.020613  1.990032     0.000000    0.002785   -0.000000
      1.418911  1.581134  0.000000     0.357066    0.344517    0.000000
      4.254684  1.581134  0.000000    -0.357066    0.344517    0.000000
      0.000000  0.179265  1.990032     0.000000   -0.002785    0.000000

[...]

  26 f  =    1.052542 THz     6.613318 2PiTHz   35.109027 cm-1     4.352966 meV
             X         Y         Z           dx          dy          dz
      2.836798  0.085376  1.990032    -0.000000    0.000000   -0.317471
      0.000000  2.926724  1.990032    -0.000000    0.000000   -0.317471
      2.836798  2.869518  0.000000    -0.000000    0.000000   -0.614738
      0.000000  0.028170  0.000000    -0.000000    0.000000   -0.614738
      4.255709  4.422481  0.000000     0.000000    0.000000   -0.080260
      1.417887  4.422481  0.000000    -0.000000    0.000000   -0.080260
      2.836798  3.020613  1.990032    -0.000000    0.000000   -0.091793
      1.418911  1.581134  0.000000    -0.000000    0.000000   -0.080260
      4.254684  1.581134  0.000000    -0.000000    0.000000   -0.080260
      0.000000  0.179265  1.990032    -0.000000    0.000000   -0.091793

  27 f/i=    0.422360 THz     2.653764 2PiTHz   14.088404 cm-1     1.746740 meV
             X         Y         Z           dx          dy          dz
      2.836798  0.085376  1.990032    -0.000000    0.320552    0.000000
      0.000000  2.926724  1.990032    -0.000000    0.320552    0.000000
      2.836798  2.869518  0.000000    -0.000000    0.483815    0.000000
      0.000000  0.028170  0.000000    -0.000000    0.483815    0.000000
      4.255709  4.422481  0.000000    -0.004304    0.231842    0.000000
      1.417887  4.422481  0.000000     0.004304    0.231842   -0.000000
      2.836798  3.020613  1.990032    -0.000000    0.235862   -0.000000
      1.418911  1.581134  0.000000    -0.004304    0.231842    0.000000
      4.254684  1.581134  0.000000     0.004304    0.231842   -0.000000
      0.000000  0.179265  1.990032    -0.000000    0.235862   -0.000000

[...]

  30 f/i=    2.914627 THz    18.313140 2PiTHz   97.221480 cm-1    12.053932 meV
             X         Y         Z           dx          dy          dz
      2.836798  0.085376  1.990032    -0.000000   -0.000000   -0.068017
      0.000000  2.926724  1.990032    -0.000000   -0.000000   -0.068017
      2.836798  2.869518  0.000000    -0.000000   -0.000000    0.194955
      0.000000  0.028170  0.000000    -0.000000   -0.000000    0.194955
      4.255709  4.422481  0.000000    -0.000000   -0.000000   -0.399364
      1.417887  4.422481  0.000000     0.000000   -0.000000   -0.399364
      2.836798  3.020613  1.990032    -0.000000   -0.000000   -0.371999
      1.418911  1.581134  0.000000    -0.000000   -0.000000   -0.399364
      4.254684  1.581134  0.000000    -0.000000    0.000000   -0.399364
      0.000000  0.179265  1.990032    -0.000000   -0.000000   -0.371999

 MACROSCOPIC STATIC DIELECTRIC TENSOR IONIC CONTRIBUTION
          52.405199     0.004234     0.000000
           0.004234    33.356897     0.005487
           0.000000     0.005487   323.615970

 ELASTIC MODULI CONTR FROM IONIC RELAXATION (kBar)
 Direction    XX          YY          ZZ          XY          YZ          ZX
 XX        -778.0050   -676.9002    182.9811     -0.0000     -0.0000     -0.0000
 YY        -676.9002   -714.2029     38.4815     -0.0000     -0.0000     -0.0000
 ZZ         182.9811     38.4815   -474.2869      0.0000      0.0000      0.0000
 XY          -0.0000     -0.0000      0.0000  -1356.8494     -0.0000     -0.0000
 YZ          -0.0000     -0.0000      0.0000     -0.0000     -0.7608     -0.0000
 ZX          -0.0000     -0.0000      0.0000     -0.0000     -0.0000     -0.2204

 PIEZOELECTRIC TENSOR IONIC CONTR  for field in x, y, z        (C/m^2)
          XX          YY          ZZ          XY          YZ          ZX
  x    -0.00035    -0.00053     0.00003    -7.84055    -0.00000    -0.00000
  y    -3.82268    -4.03744     1.52896    -0.00000    -0.00000    -0.00000
  z    -0.00071    -0.00050     0.00075    -0.00000    -0.11496    -0.00000

 writing wavefunctions

 total charge

[...]

 magnetization (x)

# of ion       s       p       d       tot
    1        0.000   0.000   0.000   0.000
    2        0.000   0.000   0.000   0.000
    3       -0.000  -0.000   0.000   0.000
    4       -0.000  -0.000   0.000   0.000
    5       -0.000  -0.000   0.000  -0.000
    6       -0.000  -0.000   0.000  -0.000
    7       -0.000  -0.000   0.000  -0.000
    8       -0.000  -0.000   0.000  -0.000
    9       -0.000  -0.000   0.000  -0.000
   10       -0.000  -0.000   0.000  -0.000
tot         -0.000  -0.000   0.000   0.000